p cnf 66 244
1 -2 -3 0
-1 2 -3 0
1 2 3 0
-1 -2 3 0
5 -3 0
5 4 0
3 -4 -5 0
-6 4 -7 0
6 -4 -7 0
-6 -4 7 0
6 4 7 0
-7 -6 -8 0
7 6 -8 0
-7 6 8 0
7 -6 8 0
10 -9 0
10 -6 0
9 6 -10 0
-12 -10 0
-12 -11 0
10 11 12 0
-15 -13 0
-15 14 0
13 -14 15 0
-1 -15 -16 0
1 15 -16 0
-1 15 16 0
1 -15 16 0
-12 -16 -17 0
12 16 -17 0
-12 16 17 0
12 -16 17 0
18 8 0
18 -17 0
-8 17 -18 0
19 2 0
19 6 0
-2 -6 -19 0
20 -19 0
20 -13 0
19 13 -20 0
-15 14 -21 0
15 -14 -21 0
-15 -14 21 0
15 14 21 0
-23 22 0
-23 14 0
-22 -14 23 0
24 -21 0
24 -23 0
21 23 -24 0
20 24 -25 0
-20 -24 -25 0
20 -24 25 0
-20 24 25 0
26 -6 0
26 -14 0
6 14 -26 0
-26 -12 -27 0
26 12 -27 0
-26 12 27 0
26 -12 27 0
28 -21 0
28 -27 0
21 27 -28 0
29 22 0
29 20 0
-22 -20 -29 0
28 -29 -30 0
-28 29 -30 0
28 29 30 0
-28 -29 30 0
-25 30 -31 0
25 -30 -31 0
-25 -30 31 0
25 30 31 0
-18 -31 -32 0
18 31 -32 0
-18 31 32 0
18 -31 32 0
-33 -5 0
-33 -32 0
5 32 33 0
34 6 0
34 2 0
-6 -2 -34 0
-34 14 -35 0
34 -14 -35 0
-34 -14 35 0
34 14 35 0
36 7 0
36 14 0
-7 -14 -36 0
37 36 0
37 27 0
-36 -27 -37 0
38 13 0
38 24 0
-13 -24 -38 0
37 38 -39 0
-37 -38 -39 0
37 -38 39 0
-37 38 39 0
-7 -36 -40 0
7 36 -40 0
-7 36 40 0
7 -36 40 0
-40 24 -41 0
40 -24 -41 0
-40 -24 41 0
40 24 41 0
42 20 0
42 -41 0
-20 41 -42 0
-42 14 -43 0
42 -14 -43 0
-42 -14 43 0
42 14 43 0
44 41 0
44 -43 0
-41 43 -44 0
-45 -3 0
-45 -19 0
3 19 45 0
46 44 0
46 -45 0
-44 45 -46 0
47 41 0
47 26 0
-41 -26 -47 0
48 -46 0
48 47 0
46 -47 -48 0
-39 48 -49 0
39 -48 -49 0
-39 -48 49 0
39 48 49 0
35 49 -50 0
-35 -49 -50 0
35 -49 50 0
-35 49 50 0
51 -33 0
51 50 0
33 -50 -51 0
-52 10 0
-52 -16 0
-10 16 52 0
-53 6 0
-53 -6 0
-55 -26 0
-55 9 0
26 -9 55 0
-56 -54 0
-56 55 0
54 -55 56 0
57 53 0
57 56 0
-53 -56 -57 0
58 -52 0
58 -57 0
52 57 -58 0
59 55 0
59 -55 0
60 1 0
60 21 0
-1 -21 -60 0
-61 59 0
-61 60 0
-59 -60 61 0
-16 6 -62 0
16 -6 -62 0
-16 -6 62 0
16 6 62 0
-63 62 0
-63 -16 0
-62 16 63 0
61 -63 -64 0
-61 63 -64 0
61 63 64 0
-61 -63 64 0
65 -58 0
65 -64 0
58 64 -65 0
-51 -65 -66 0
51 65 -66 0
-51 65 66 0
51 -65 66 0
51 62 -12 -4 0
-4 -55 11 -31 -40 0
45 60 65 -1 11 0
-48 4 54 0
-29 -59 56 -31 0
-18 -19 -12 -60 23 -33 0
22 42 28 25 14 0
-49 6 -7 47 37 0
56 25 -62 0
54 24 26 -18 -53 0
9 -11 -14 0
40 -62 30 43 0
-8 58 6 20 0
-3 -7 52 0
32 -56 -34 0
8 -62 56 -11 33 0
-47 42 -52 -50 -30 0
39 31 -44 -25 0
-4 -34 0
-64 17 -51 53 0
13 18 0
-7 -63 9 -12 -55 0
-63 -22 15 0
54 -63 56 0
-13 -9 -10 29 27 0
-51 46 66 0
39 -65 -16 49 46 0
2 17 12 46 0
-3 -23 -31 -29 0
23 20 -15 -66 56 0
-61 -6 -45 -49 1 -65 0
-27 -59 -28 55 32 0
-32 -41 0
39 64 65 6 0
-45 -9 -23 -51 -59 58 0
-13 48 12 -39 0
3 39 0
-48 28 18 0
-19 63 -13 61 -24 0
40 -4 24 0
-8 -65 -50 -3 0
-40 33 0
-38 22 45 -53 20 25 0
-56 -66 -26 0
41 -15 32 61 -19 47 0
-2 -23 39 50 -14 63 0
-8 -4 -2 -11 -40 0
61 -33 0
-22 63 4 0
-2 -11 41 0
23 -39 0
-31 37 0
-37 14 -28 30 -29 -43 0
-13 41 -34 0
-66 -57 31 20 -30 18 0
-37 -53 0
66 0
